letting n =  10
letting blocks =  [[1, 1], [1, 3], [1, 4], [1, 6], [2, 3], [2, 4], [3, 2], [3, 5], [3, 9], [3, 10], [4, 1], [4, 4], [4, 5], [4, 9], [5, 1], [6, 1], [6, 3], [6, 5], [7, 5], [8, 3], [8, 6], [8, 8], [9, 2], [9, 9], [10, 1], [10, 2], [10, 3], [10, 7], [10, 8], [10, 9]]
